NAME          FUSSOLG
ROWS
 G  N
 G  AM-N
 G  NI-N
 G  UR-N
 G  P
 G  K
 G  S
 G  ZN
 G  WATR
 G  DEN
 E  WT
 N  COST
 N  PRICE
COLUMNS
*234567890123456789012345678901234567890123456789012345678901
    WATER     WATR          1.000000   DEN           0.119900   
    WATER     WT            1.000000   COST          0.000100   
    WATER     PRICE         0.000000   SCALE         8.340000   
    I320000   N             0.320000   AM-N          0.080000   
    I320000   NI-N          0.080000   UR-N          0.160000   
    I320000   WATR          0.200000   DEN           0.090415   
    I320000   WT            1.000000   COST          0.561200   
    I320000   PRICE         0.701600   SCALE        11.060000   
    I103400   N             0.100000   AM-N          0.100000   
    I103400   P             0.340000   WATR          0.380000   
    I103400   DEN           0.085470   WT            1.000000   
    I103400   COST          1.111500   PRICE         1.389400   
    I103400   SCALE        11.700000   
    I041010   N             0.040000   P             0.100000   
    I041010   K             0.100000   WATR          0.550000   
    I041010   DEN           0.095785   WT            1.000000   
    I041010   COST          0.744300   PRICE         0.930400   
    I041010   SCALE        10.440000   
    I120000   N             0.120000   AM-N          0.120000   
    I120000   S             0.260000   WATR          0.360000   
    I120000   DEN           0.090415   WT            1.000000   
    I120000   COST          0.752400   PRICE         0.940500   
    I120000   SCALE        11.060000   
    I100000   N             0.100000   AM-N          0.100000   
    I100000   S             0.050000   ZN            0.100000   
    I100000   WATR          0.600000   DEN           0.094340   
    I100000   WT            1.000000   COST          1.003300   
    I100000   PRICE         1.254100   SCALE        10.600000   
    LASSO     DEN           0.106405   WT            1.000000   
    LASSO     COST          5.625000   PRICE         6.250000   
    LASSO     SCALE         2.349500   
    ATRAZINE  DEN           0.108110   WT            1.000000   
    ATRAZINE  COST          2.000000   PRICE         2.250000   
    ATRAZINE  SCALE         2.312500   
    PRODUCT   WT           -1.000000   COST          0.000000   
    PRODUCT   PRICE         0.000000   SCALE         1.000000   
*234567890123456789012345678901234567890123456789012345678901
RHS
RANGES
ENDATA
